spark_2014_all/AUFDTLIRA/tokeneer___cryptotypes.ads_33_17_range_check.smt2
(set-info :smt-lib-version 2.5)
(set-info :license |https://www.gnu.org/licenses/gpl-3.0.html|)
(set-logic AUFDTLIRA)
(set-info :source |Benchmarks generated by Florian Schanda from the public SPARK 2014 testsuite and post-processed with a script to set more precise logics.|)
(set-info :category industrial)
(set-info :status unknown)

(declare-datatypes () ((tuple0 (Tuple0))))
(declare-sort us_private 0)
(declare-fun private__bool_eq (us_private us_private) Bool)
(declare-const us_null_ext__ us_private)
(declare-sort us_type_of_heap 0)
(declare-datatypes () ((us_type_of_heap__ref (mk___type_of_heap__ref (us_type_of_heap__content us_type_of_heap)))))
(declare-sort us_image 0)
(declare-datatypes () ((int__ref (mk_int__ref (int__content Int)))))
(declare-datatypes () ((bool__ref (mk_bool__ref (bool__content Bool)))))
(declare-datatypes () ((real__ref (mk_real__ref (real__content Real)))))
(declare-datatypes () ((us_private__ref (mk___private__ref (us_private__content us_private)))))
(define-fun int__ref___projection ((a int__ref)) Int (int__content a))
(define-fun bool__ref___projection ((a bool__ref)) Bool (bool__content a))
(define-fun real__ref___projection ((a real__ref)) Real (real__content a))
(define-fun us_private__ref___projection ((a us_private__ref)) us_private (us_private__content a))
(declare-sort integer 0)
(define-fun in_range ((x Int)) Bool (and (<= (- 2147483648) x) (<= x 2147483647)))
(declare-fun attr__ATTRIBUTE_IMAGE (Int) us_image)
(declare-fun attr__ATTRIBUTE_VALUE__pre_check (us_image) Bool)
(declare-fun attr__ATTRIBUTE_VALUE (us_image) Int)
(declare-fun user_eq (integer integer) Bool)
(declare-const dummy integer)
(declare-datatypes () ((integer__ref (mk_integer__ref (integer__content integer)))))
(define-fun integer__ref___projection ((a integer__ref)) integer (integer__content a))
(declare-sort positive 0)
(define-fun in_range1 ((x Int)) Bool (and (<= 1 x) (<= x 2147483647)))
(declare-fun attr__ATTRIBUTE_IMAGE1 (Int) us_image)
(declare-fun attr__ATTRIBUTE_VALUE__pre_check1 (us_image) Bool)
(declare-fun attr__ATTRIBUTE_VALUE1 (us_image) Int)
(declare-fun user_eq1 (positive positive) Bool)
(declare-const dummy1 positive)
(declare-datatypes () ((positive__ref (mk_positive__ref (positive__content positive)))))
(define-fun positive__ref___projection ((a positive__ref)) positive (positive__content a))
(declare-sort character 0)
(define-fun in_range2 ((x Int)) Bool (and (<= 0 x) (<= x 255)))
(declare-fun attr__ATTRIBUTE_IMAGE2 (Int) us_image)
(declare-fun attr__ATTRIBUTE_VALUE__pre_check2 (us_image) Bool)
(declare-fun attr__ATTRIBUTE_VALUE2 (us_image) Int)
(declare-fun user_eq2 (character character) Bool)
(declare-const dummy2 character)
(declare-datatypes () ((character__ref (mk_character__ref (character__content character)))))
(define-fun character__ref___projection ((a character__ref)) character (character__content a))
(declare-fun to_rep (character) Int)
(declare-fun of_rep (Int) character)
(assert (forall ((x character)) (! (= (of_rep (to_rep x)) x) :pattern ((to_rep x)))))
(assert (forall ((x character)) (! (in_range2 (to_rep x)) :pattern ((to_rep x)))))
(assert (forall ((x Int)) (! (=> (in_range2 x) (= (to_rep (of_rep x)) x)) :pattern ((to_rep (of_rep x))))))
(declare-datatypes () ((map__ref (mk_map__ref (map__content (Array Int character))))))
(declare-fun slide ((Array Int character) Int Int) (Array Int character))
(assert (forall ((a (Array Int character))) (forall ((first Int)) (! (= (slide a first first) a) :pattern ((slide a first first))))))
(assert (forall ((a (Array Int character))) (forall ((old_first Int)) (forall ((new_first Int)) (forall ((i Int)) (! (= (select (slide a old_first new_first) i) (select a (- i (- new_first old_first)))) :pattern ((select (slide a old_first new_first) i))))))))
(declare-fun concat1 ((Array Int character) Int Int (Array Int character) Int Int) (Array Int character))
(assert (forall ((a (Array Int character)) (b (Array Int character))) (forall ((a_first Int) (a_last Int) (b_first Int) (b_last Int)) (forall ((i Int)) (! (and (=> (and (<= a_first i) (<= i a_last)) (= (select (concat1 a a_first a_last b b_first b_last) i) (select a i))) (=> (< a_last i) (= (select (concat1 a a_first a_last b b_first b_last) i) (select b (+ (- i a_last) (- b_first 1)))))) :pattern ((select (concat1 a a_first a_last b b_first b_last) i)))))))
(declare-fun singleton1 (character Int) (Array Int character))
(assert (forall ((v character)) (forall ((i Int)) (! (= (select (singleton1 v i) i) v) :pattern ((select (singleton1 v i) i))))))
(define-fun bool_eq ((a (Array Int character)) (a__first Int) (a__last Int) (b (Array Int character)) (b__first Int) (b__last Int)) Bool (ite (and (ite (<= a__first a__last) (and (<= b__first b__last) (= (- a__last a__first) (- b__last b__first))) (< b__last b__first)) (forall ((temp___idx_78 Int)) (=> (and (<= a__first temp___idx_78) (<= temp___idx_78 a__last)) (= (to_rep (select a temp___idx_78)) (to_rep (select b (+ (- b__first a__first) temp___idx_78))))))) true false))
(assert (forall ((a (Array Int character)) (b (Array Int character))) (forall ((a__first Int) (a__last Int) (b__first Int) (b__last Int)) (=> (= (bool_eq b b__first b__last a a__first a__last) true) (and (ite (<= a__first a__last) (and (<= b__first b__last) (= (- a__last a__first) (- b__last b__first))) (< b__last b__first)) (forall ((temp___idx_78 Int)) (=> (and (<= a__first temp___idx_78) (<= temp___idx_78 a__last)) (= (to_rep (select a temp___idx_78)) (to_rep (select b (+ (- b__first a__first) temp___idx_78)))))))))))
(declare-fun compare ((Array Int character) Int Int (Array Int character) Int Int) Int)
(assert (forall ((a (Array Int character)) (b (Array Int character))) (forall ((a_first Int) (a_last Int) (b_first Int) (b_last Int)) (! (= (= (compare a a_first a_last b b_first b_last) 0) (= (bool_eq a a_first a_last b b_first b_last) true)) :pattern ((compare a a_first a_last b b_first b_last))))))
(assert (forall ((a (Array Int character)) (b (Array Int character))) (forall ((a_first Int) (a_last Int) (b_first Int) (b_last Int)) (! (= (< (compare a a_first a_last b b_first b_last) 0) (exists ((i Int) (j Int)) (and (<= i a_last) (and (< j b_last) (and (= (bool_eq a a_first i b b_first j) true) (or (= i a_last) (and (< i a_last) (< (to_rep (select a (+ i 1))) (to_rep (select b (+ j 1))))))))))) :pattern ((compare a a_first a_last b b_first b_last))))))
(assert (forall ((a (Array Int character)) (b (Array Int character))) (forall ((a_first Int) (a_last Int) (b_first Int) (b_last Int)) (! (= (< 0 (compare a a_first a_last b b_first b_last)) (exists ((i Int) (j Int)) (and (<= i b_last) (and (< j a_last) (and (= (bool_eq a a_first j b b_first i) true) (or (= i b_last) (and (< i b_last) (< (to_rep (select b (+ i 1))) (to_rep (select a (+ j 1))))))))))) :pattern ((compare a a_first a_last b b_first b_last))))))
(declare-fun to_rep1 (integer) Int)
(declare-fun of_rep1 (Int) integer)
(assert (forall ((x integer)) (! (= (of_rep1 (to_rep1 x)) x) :pattern ((to_rep1 x)))))
(assert (forall ((x integer)) (! (in_range (to_rep1 x)) :pattern ((to_rep1 x)))))
(assert (forall ((x Int)) (! (=> (in_range x) (= (to_rep1 (of_rep1 x)) x)) :pattern ((to_rep1 (of_rep1 x))))))
(declare-sort t 0)
(declare-fun first (t) integer)
(declare-fun last (t) integer)
(declare-fun mk (Int Int) t)
(assert (forall ((f Int) (l Int)) (! (=> (in_range f) (=> (in_range l) (and (= (to_rep1 (first (mk f l))) f) (= (to_rep1 (last (mk f l))) l)))) :pattern ((mk f l)))))
(define-fun dynamic_property ((range_first Int) (range_last Int) (low Int) (high Int)) Bool (and (in_range low) (and (in_range high) (=> (<= low high) (and (in_range1 low) (in_range1 high))))))
(declare-datatypes () ((us_t (mk___t (elts (Array Int character)) (rt t)))))
(define-fun to_array ((a us_t)) (Array Int character) (elts a))
(define-fun of_array ((a (Array Int character)) (f Int) (l Int)) us_t (mk___t a (mk f l)))
(define-fun first1 ((a us_t)) Int (to_rep1 (first (rt a))))
(define-fun last1 ((a us_t)) Int (to_rep1 (last (rt a))))
(define-fun length ((a us_t)) Int (ite (<= (first1 a) (last1 a)) (+ (- (last1 a) (first1 a)) 1) 0))
(declare-const value__size Int)
(declare-fun object__size ((Array Int character)) Int)
(declare-const value__component__size Int)
(declare-fun object__component__size ((Array Int character)) Int)
(declare-const value__alignment Int)
(declare-fun object__alignment ((Array Int character)) Int)
(assert (<= 0 value__size))
(assert (forall ((a (Array Int character))) (<= 0 (object__size a))))
(assert (<= 0 value__component__size))
(assert (forall ((a (Array Int character))) (<= 0 (object__component__size a))))
(assert (<= 0 value__alignment))
(assert (forall ((a (Array Int character))) (<= 0 (object__alignment a))))
(define-fun bool_eq1 ((x us_t) (y us_t)) Bool (bool_eq (elts x) (to_rep1 (first (rt x))) (to_rep1 (last (rt x))) (elts y) (to_rep1 (first (rt y))) (to_rep1 (last (rt y)))))
(declare-fun user_eq3 (us_t us_t) Bool)
(declare-const dummy3 us_t)
(declare-fun to_string (us_image) us_t)
(declare-fun from_string (us_t) us_image)
(declare-datatypes () ((string__ref (mk_string__ref (string__content us_t)))))
(define-fun string__ref___projection ((a string__ref)) us_t (string__content a))
(declare-sort t1 0)
(declare-fun first2 (t1) integer)
(declare-fun last2 (t1) integer)
(declare-fun mk1 (Int Int) t1)
(assert (forall ((f Int) (l Int)) (! (=> (in_range f) (=> (in_range l) (and (= (to_rep1 (first2 (mk1 f l))) f) (= (to_rep1 (last2 (mk1 f l))) l)))) :pattern ((mk1 f l)))))
(define-fun dynamic_property1 ((range_first Int) (range_last Int) (low Int) (high Int)) Bool (and (in_range low) (and (in_range high) (=> (<= low high) (and (in_range1 low) (in_range1 high))))))
(declare-datatypes () ((us_t1 (mk___t1 (elts1 (Array Int character)) (rt1 t1)))))
(define-fun to_array1 ((a us_t1)) (Array Int character) (elts1 a))
(define-fun of_array1 ((a (Array Int character)) (f Int) (l Int)) us_t1 (mk___t1 a (mk1 f l)))
(define-fun first3 ((a us_t1)) Int (to_rep1 (first2 (rt1 a))))
(define-fun last3 ((a us_t1)) Int (to_rep1 (last2 (rt1 a))))
(define-fun length1 ((a us_t1)) Int (ite (<= (first3 a) (last3 a)) (+ (- (last3 a) (first3 a)) 1) 0))
(declare-const value__size1 Int)
(declare-fun object__size1 ((Array Int character)) Int)
(declare-const value__component__size1 Int)
(declare-fun object__component__size1 ((Array Int character)) Int)
(declare-const value__alignment1 Int)
(declare-fun object__alignment1 ((Array Int character)) Int)
(assert (<= 0 value__size1))
(assert (forall ((a (Array Int character))) (<= 0 (object__size1 a))))
(assert (<= 0 value__component__size1))
(assert (forall ((a (Array Int character))) (<= 0 (object__component__size1 a))))
(assert (<= 0 value__alignment1))
(assert (forall ((a (Array Int character))) (<= 0 (object__alignment1 a))))
(define-fun bool_eq2 ((x us_t1) (y us_t1)) Bool (bool_eq (elts1 x) (to_rep1 (first2 (rt1 x))) (to_rep1 (last2 (rt1 x))) (elts1 y) (to_rep1 (first2 (rt1 y))) (to_rep1 (last2 (rt1 y)))))
(declare-fun user_eq4 (us_t1 us_t1) Bool)
(declare-const dummy4 us_t1)
(declare-datatypes () ((stringf1l1000__ref (mk_stringf1l1000__ref (stringf1l1000__content us_t1)))))
(define-fun stringf1l1000__ref___projection ((a stringf1l1000__ref)) us_t1 (stringf1l1000__content a))
(declare-sort t2 0)
(declare-fun first4 (t2) integer)
(declare-fun last4 (t2) integer)
(declare-fun mk2 (Int Int) t2)
(assert (forall ((f Int) (l Int)) (! (=> (in_range f) (=> (in_range l) (and (= (to_rep1 (first4 (mk2 f l))) f) (= (to_rep1 (last4 (mk2 f l))) l)))) :pattern ((mk2 f l)))))
(define-fun dynamic_property2 ((range_first Int) (range_last Int) (low Int) (high Int)) Bool (and (in_range low) (and (in_range high) (=> (<= low high) (and (in_range1 low) (in_range1 high))))))
(declare-datatypes () ((us_t2 (mk___t2 (elts2 (Array Int character)) (rt2 t2)))))
(define-fun to_array2 ((a us_t2)) (Array Int character) (elts2 a))
(define-fun of_array2 ((a (Array Int character)) (f Int) (l Int)) us_t2 (mk___t2 a (mk2 f l)))
(define-fun first5 ((a us_t2)) Int (to_rep1 (first4 (rt2 a))))
(define-fun last5 ((a us_t2)) Int (to_rep1 (last4 (rt2 a))))
(define-fun length2 ((a us_t2)) Int (ite (<= (first5 a) (last5 a)) (+ (- (last5 a) (first5 a)) 1) 0))
(declare-const value__size2 Int)
(declare-fun object__size2 ((Array Int character)) Int)
(declare-const value__component__size2 Int)
(declare-fun object__component__size2 ((Array Int character)) Int)
(declare-const value__alignment2 Int)
(declare-fun object__alignment2 ((Array Int character)) Int)
(assert (<= 0 value__size2))
(assert (forall ((a (Array Int character))) (<= 0 (object__size2 a))))
(assert (<= 0 value__component__size2))
(assert (forall ((a (Array Int character))) (<= 0 (object__component__size2 a))))
(assert (<= 0 value__alignment2))
(assert (forall ((a (Array Int character))) (<= 0 (object__alignment2 a))))
(define-fun bool_eq3 ((x us_t2) (y us_t2)) Bool (bool_eq (elts2 x) (to_rep1 (first4 (rt2 x))) (to_rep1 (last4 (rt2 x))) (elts2 y) (to_rep1 (first4 (rt2 y))) (to_rep1 (last4 (rt2 y)))))
(declare-fun user_eq5 (us_t2 us_t2) Bool)
(declare-const dummy5 us_t2)
(declare-datatypes () ((stringf1__ref (mk_stringf1__ref (stringf1__content us_t2)))))
(define-fun stringf1__ref___projection ((a stringf1__ref)) us_t2 (stringf1__content a))
(define-fun dynamic_invariant ((temp___expr_266 us_t1) (temp___is_init_263 Bool) (temp___skip_constant_264 Bool) (temp___do_toplevel_265 Bool)) Bool (and (=> (not (= temp___skip_constant_264 true)) (dynamic_property1 1 2147483647 (first3 temp___expr_266) (last3 temp___expr_266))) (=> (= temp___do_toplevel_265 true) (=> (= temp___is_init_263 true) (and (let ((temp___268 (of_array2 (to_array1 temp___expr_266) (first3 temp___expr_266) (last3 temp___expr_266)))) (and (= (first5 temp___268) 1) (<= 0 (last5 temp___268)))) (<= (last3 temp___expr_266) 1000))))))
(define-fun dynamic_predicate ((temp___270 us_t1)) Bool (and (let ((temp___272 (of_array2 (to_array1 temp___270) (first3 temp___270) (last3 temp___270)))) (and (= (first5 temp___272) 1) (<= 0 (last5 temp___272)))) (<= (last3 temp___270) 1000)))
(declare-sort issueridt 0)
(define-fun in_range3 ((x Int)) Bool (and (<= 0 x) (<= x 4294967295)))
(declare-fun attr__ATTRIBUTE_IMAGE3 (Int) us_image)
(declare-fun attr__ATTRIBUTE_VALUE__pre_check3 (us_image) Bool)
(declare-fun attr__ATTRIBUTE_VALUE3 (us_image) Int)
(declare-fun user_eq6 (issueridt issueridt) Bool)
(declare-const dummy6 issueridt)
(declare-datatypes () ((issueridt__ref (mk_issueridt__ref (issueridt__content issueridt)))))
(define-fun issueridt__ref___projection ((a issueridt__ref)) issueridt (issueridt__content a))
(define-fun dynamic_invariant1 ((temp___expr_349 Int) (temp___is_init_346 Bool) (temp___skip_constant_347 Bool) (temp___do_toplevel_348 Bool)) Bool (=> (or (= temp___is_init_346 true) (<= 0 4294967295)) (in_range3 temp___expr_349)))
(declare-const x Int)
(declare-const attr__ATTRIBUTE_ADDRESS Int)
(define-fun dynamic_invariant2 ((temp___expr_39 Int) (temp___is_init_36 Bool) (temp___skip_constant_37 Bool) (temp___do_toplevel_38 Bool)) Bool (=> (or (= temp___is_init_36 true) (<= 1 2147483647)) (in_range1 temp___expr_39)))
(define-fun dynamic_invariant3 ((temp___expr_63 Int) (temp___is_init_60 Bool) (temp___skip_constant_61 Bool) (temp___do_toplevel_62 Bool)) Bool (=> (or (= temp___is_init_60 true) (<= 0 255)) (in_range2 temp___expr_63)))
(define-fun dynamic_invariant4 ((temp___expr_82 us_t) (temp___is_init_79 Bool) (temp___skip_constant_80 Bool) (temp___do_toplevel_81 Bool)) Bool (=> (not (= temp___skip_constant_80 true)) (dynamic_property 1 2147483647 (first1 temp___expr_82) (last1 temp___expr_82))))
(define-fun dynamic_invariant5 ((temp___expr_15 Int) (temp___is_init_12 Bool) (temp___skip_constant_13 Bool) (temp___do_toplevel_14 Bool)) Bool (=> (or (= temp___is_init_12 true) (<= (- 2147483648) 2147483647)) (in_range temp___expr_15)))
(define-fun dynamic_invariant6 ((temp___expr_232 us_t2) (temp___is_init_229 Bool) (temp___skip_constant_230 Bool) (temp___do_toplevel_231 Bool)) Bool (and (=> (not (= temp___skip_constant_230 true)) (dynamic_property2 1 2147483647 (first5 temp___expr_232) (last5 temp___expr_232))) (=> (= temp___do_toplevel_231 true) (=> (= temp___is_init_229 true) (and (= (first5 temp___expr_232) 1) (<= 0 (last5 temp___expr_232)))))))
(define-fun dynamic_predicate1 ((temp___235 us_t2)) Bool (and (= (first5 temp___235) 1) (<= 0 (last5 temp___235))))
(declare-const temp___402 (Array Int character))
(declare-const temp___4021 t1)
(assert (in_range3 x))
(assert (not (dynamic_property1 1 2147483647 (to_rep1 (first (rt (to_string (attr__ATTRIBUTE_IMAGE3 x))))) (to_rep1 (last (rt (to_string (attr__ATTRIBUTE_IMAGE3 x))))))))
(check-sat)
(exit)
